p edge 136 641
e 1 3
e 1 18
e 2 4
e 2 17
e 2 18
e 2 19
e 2 32
e 3 5
e 3 17
e 3 18
e 3 19
e 3 20
e 3 33
e 4 6
e 4 18
e 4 19
e 4 20
e 4 21
e 4 34
e 5 7
e 5 19
e 5 20
e 5 21
e 5 22
e 5 35
e 6 8
e 6 20
e 6 21
e 6 22
e 6 23
e 6 36
e 7 9
e 7 21
e 7 22
e 7 23
e 7 24
e 7 37
e 8 10
e 8 22
e 8 23
e 8 24
e 8 25
e 8 38
e 9 11
e 9 23
e 9 24
e 9 25
e 9 26
e 9 39
e 10 12
e 10 24
e 10 25
e 10 26
e 10 27
e 10 40
e 11 13
e 11 25
e 11 26
e 11 27
e 11 28
e 11 41
e 12 14
e 12 26
e 12 27
e 12 28
e 12 29
e 12 42
e 13 15
e 13 27
e 13 28
e 13 29
e 13 30
e 13 43
e 14 17
e 14 28
e 14 29
e 14 30
e 14 31
e 14 44
e 15 29
e 15 30
e 15 32
e 15 45
e 16 30
e 17 19
e 17 31
e 17 33
e 18 20
e 18 32
e 18 33
e 18 34
e 18 46
e 19 21
e 19 32
e 19 33
e 19 34
e 19 35
e 19 47
e 20 22
e 20 33
e 20 34
e 20 35
e 20 36
e 20 48
e 21 23
e 21 34
e 21 35
e 21 36
e 21 37
e 21 49
e 22 24
e 22 35
e 22 36
e 22 37
e 22 38
e 22 50
e 23 25
e 23 36
e 23 37
e 23 38
e 23 39
e 23 51
e 24 26
e 24 37
e 24 38
e 24 39
e 24 40
e 24 52
e 25 27
e 25 38
e 25 39
e 25 40
e 25 41
e 25 53
e 26 28
e 26 39
e 26 40
e 26 41
e 26 42
e 26 54
e 27 29
e 27 40
e 27 41
e 27 42
e 27 43
e 27 55
e 28 30
e 28 41
e 28 42
e 28 43
e 28 44
e 28 56
e 29 32
e 29 42
e 29 43
e 29 44
e 29 45
e 29 57
e 30 43
e 30 44
e 30 46
e 30 58
e 31 44
e 32 34
e 32 45
e 32 47
e 33 35
e 33 46
e 33 47
e 33 48
e 33 59
e 34 36
e 34 46
e 34 47
e 34 48
e 34 49
e 34 60
e 35 37
e 35 47
e 35 48
e 35 49
e 35 50
e 35 61
e 36 38
e 36 48
e 36 49
e 36 50
e 36 51
e 36 62
e 37 39
e 37 49
e 37 50
e 37 51
e 37 52
e 37 63
e 38 40
e 38 50
e 38 51
e 38 52
e 38 53
e 38 64
e 39 41
e 39 51
e 39 52
e 39 53
e 39 54
e 39 65
e 40 42
e 40 52
e 40 53
e 40 54
e 40 55
e 40 66
e 41 43
e 41 53
e 41 54
e 41 55
e 41 56
e 41 67
e 42 44
e 42 54
e 42 55
e 42 56
e 42 57
e 42 68
e 43 46
e 43 55
e 43 56
e 43 57
e 43 58
e 43 69
e 44 56
e 44 57
e 44 59
e 44 70
e 45 57
e 46 48
e 46 58
e 46 60
e 47 49
e 47 59
e 47 60
e 47 61
e 47 71
e 48 50
e 48 59
e 48 60
e 48 61
e 48 62
e 48 72
e 49 51
e 49 60
e 49 61
e 49 62
e 49 63
e 49 73
e 50 52
e 50 61
e 50 62
e 50 63
e 50 64
e 50 74
e 51 53
e 51 62
e 51 63
e 51 64
e 51 65
e 51 75
e 52 54
e 52 63
e 52 64
e 52 65
e 52 66
e 52 76
e 53 55
e 53 64
e 53 65
e 53 66
e 53 67
e 53 77
e 54 56
e 54 65
e 54 66
e 54 67
e 54 68
e 54 78
e 55 57
e 55 66
e 55 67
e 55 68
e 55 69
e 55 79
e 56 59
e 56 67
e 56 68
e 56 69
e 56 70
e 56 80
e 57 68
e 57 69
e 57 71
e 57 81
e 58 69
e 59 61
e 59 70
e 59 72
e 60 62
e 60 71
e 60 72
e 60 73
e 60 82
e 61 63
e 61 71
e 61 72
e 61 73
e 61 74
e 61 83
e 62 64
e 62 72
e 62 73
e 62 74
e 62 75
e 62 84
e 63 65
e 63 73
e 63 74
e 63 75
e 63 76
e 63 85
e 64 66
e 64 74
e 64 75
e 64 76
e 64 77
e 64 86
e 65 67
e 65 75
e 65 76
e 65 77
e 65 78
e 65 87
e 66 68
e 66 76
e 66 77
e 66 78
e 66 79
e 66 88
e 67 69
e 67 77
e 67 78
e 67 79
e 67 80
e 67 89
e 68 71
e 68 78
e 68 79
e 68 80
e 68 81
e 68 90
e 69 79
e 69 80
e 69 82
e 69 91
e 70 80
e 71 73
e 71 81
e 71 83
e 72 74
e 72 82
e 72 83
e 72 84
e 72 92
e 73 75
e 73 82
e 73 83
e 73 84
e 73 85
e 73 93
e 74 76
e 74 83
e 74 84
e 74 85
e 74 86
e 74 94
e 75 77
e 75 84
e 75 85
e 75 86
e 75 87
e 75 95
e 76 78
e 76 85
e 76 86
e 76 87
e 76 88
e 76 96
e 77 79
e 77 86
e 77 87
e 77 88
e 77 89
e 77 97
e 78 80
e 78 87
e 78 88
e 78 89
e 78 90
e 78 98
e 79 82
e 79 88
e 79 89
e 79 90
e 79 91
e 79 99
e 80 89
e 80 90
e 80 92
e 80 100
e 81 90
e 82 84
e 82 91
e 82 93
e 83 85
e 83 92
e 83 93
e 83 94
e 83 101
e 84 86
e 84 92
e 84 93
e 84 94
e 84 95
e 84 102
e 85 87
e 85 93
e 85 94
e 85 95
e 85 96
e 85 103
e 86 88
e 86 94
e 86 95
e 86 96
e 86 97
e 86 104
e 87 89
e 87 95
e 87 96
e 87 97
e 87 98
e 87 105
e 88 90
e 88 96
e 88 97
e 88 98
e 88 99
e 88 106
e 89 92
e 89 97
e 89 98
e 89 99
e 89 100
e 89 107
e 90 98
e 90 99
e 90 101
e 90 108
e 91 99
e 92 94
e 92 100
e 92 102
e 93 95
e 93 101
e 93 102
e 93 103
e 93 109
e 94 96
e 94 101
e 94 102
e 94 103
e 94 104
e 94 110
e 95 97
e 95 102
e 95 103
e 95 104
e 95 105
e 95 111
e 96 98
e 96 103
e 96 104
e 96 105
e 96 106
e 96 112
e 97 99
e 97 104
e 97 105
e 97 106
e 97 107
e 97 113
e 98 101
e 98 105
e 98 106
e 98 107
e 98 108
e 98 114
e 99 106
e 99 107
e 99 109
e 99 115
e 100 107
e 101 103
e 101 108
e 101 110
e 102 104
e 102 109
e 102 110
e 102 111
e 102 116
e 103 105
e 103 109
e 103 110
e 103 111
e 103 112
e 103 117
e 104 106
e 104 110
e 104 111
e 104 112
e 104 113
e 104 118
e 105 107
e 105 111
e 105 112
e 105 113
e 105 114
e 105 119
e 106 109
e 106 112
e 106 113
e 106 114
e 106 115
e 106 120
e 107 113
e 107 114
e 107 116
e 107 121
e 108 114
e 109 111
e 109 115
e 109 117
e 110 112
e 110 116
e 110 117
e 110 118
e 110 122
e 111 113
e 111 116
e 111 117
e 111 118
e 111 119
e 111 123
e 112 114
e 112 117
e 112 118
e 112 119
e 112 120
e 112 124
e 113 116
e 113 118
e 113 119
e 113 120
e 113 121
e 113 125
e 114 119
e 114 120
e 114 122
e 114 126
e 115 120
e 116 118
e 116 121
e 116 123
e 117 119
e 117 122
e 117 123
e 117 124
e 117 127
e 118 120
e 118 122
e 118 123
e 118 124
e 118 125
e 118 128
e 119 122
e 119 123
e 119 124
e 119 125
e 119 126
e 119 129
e 120 124
e 120 125
e 120 127
e 120 130
e 121 125
e 122 124
e 122 126
e 122 128
e 123 125
e 123 127
e 123 128
e 123 129
e 123 131
e 124 127
e 124 128
e 124 129
e 124 130
e 124 132
e 125 128
e 125 129
e 125 131
e 125 133
e 126 129
e 127 129
e 127 130
e 127 132
e 128 131
e 128 132
e 128 133
e 128 134
e 129 131
e 129 132
e 129 134
e 129 135
e 130 132
e 131 133
e 131 134
e 131 135
e 132 134
e 132 136
e 133 134
e 134 135
